Nb of jobs, Nb of Machines, Time seed, Machine seed, Upper bound, Lower bound
3,10,-1,-1,-1,-1
Times
20,35,73,76,50,75,97,60,94,23
4,20,73,65,93,19,74,87,32,78
72,7,62,44,66,93,66,83,37,88
Machines
8,6,2,4,7,9,5,10,3,1
6,5,3,7,10,9,1,2,4,8
3,1,6,5,10,2,8,7,9,4
